<number of tasks>
50

<cycle time>
1000

<order strength>
0.598


<task times>
1 407
2 434
3 333
4 447
5 391
6 747
7 581
8 590
9 584
10 469
11 524
12 322
13 551
14 526
15 684
16 419
17 729
18 496
19 567
20 587
21 462
22 506
23 388
24 403
25 674
26 609
27 531
28 532
29 391
30 421
31 551
32 477
33 474
34 425
35 586
36 503
37 548
38 561
39 614
40 527
41 401
42 361
43 226
44 397
45 301
46 646
47 279
48 536
49 468
50 451

<precedence relations>
1,5
2,4
2,5
2,6
3,4
3,5
3,6
4,7
4,8
4,9
4,10
4,11
5,7
5,8
5,9
6,10
6,11
6,18
6,28
7,12
7,13
7,18
7,24
8,14
8,32
8,35
9,12
9,13
9,15
10,12
10,21
11,25
11,35
12,17
12,25
12,35
13,20
13,40
14,23
15,16
15,18
16,19
16,23
16,24
17,20
17,42
17,43
18,21
18,22
18,32
19,28
20,29
21,25
21,26
21,27
22,30
22,33
23,25
23,29
24,25
24,29
25,31
25,33
25,34
26,44
27,30
27,31
27,35
28,32
28,35
30,38
30,40
31,37
31,50
32,48
32,50
33,42
33,48
34,36
34,37
34,38
34,39
34,40
35,36
35,46
36,44
36,47
37,43
37,46
37,49
38,45
38,46
39,41
40,42
40,44
43,48
44,49
45,47
45,50
46,47

<end>
